
;this file is automatically generated: Tue Mar 02 16:20:05 CST 2021

;declarations generated

(declare-fun oclExcludes ( Int Int) Bool)
(declare-fun type_18cf740f_d74e_4749_ac6d_faba668d1451_Class13 ( Int) Bool)
(declare-fun type_18cf740f_d74e_4749_ac6d_faba668d1451_Class14 ( Int) Bool)
(declare-fun type_18cf740f_d74e_4749_ac6d_faba668d1451_Class11 ( Int) Bool)
(declare-fun type_18cf740f_d74e_4749_ac6d_faba668d1451_Class12 ( Int) Bool)
(declare-fun type_18cf740f_d74e_4749_ac6d_faba668d1451_Class10 ( Int) Bool)
(declare-fun type_18cf740f_d74e_4749_ac6d_faba668d1451_Class19 ( Int) Bool)
(declare-fun type_18cf740f_d74e_4749_ac6d_faba668d1451_Class17 ( Int) Bool)
(declare-fun type_18cf740f_d74e_4749_ac6d_faba668d1451_Class18 ( Int) Bool)
(declare-fun type_18cf740f_d74e_4749_ac6d_faba668d1451_Class15 ( Int) Bool)
(declare-fun type_18cf740f_d74e_4749_ac6d_faba668d1451_Class16 ( Int) Bool)
(declare-fun type_18cf740f_d74e_4749_ac6d_faba668d1451_Class24 ( Int) Bool)
(declare-fun type_18cf740f_d74e_4749_ac6d_faba668d1451_Class25 ( Int) Bool)
(declare-fun type_18cf740f_d74e_4749_ac6d_faba668d1451_Class22 ( Int) Bool)
(declare-fun type_18cf740f_d74e_4749_ac6d_faba668d1451_Class23 ( Int) Bool)
(declare-fun type_18cf740f_d74e_4749_ac6d_faba668d1451_Class20 ( Int) Bool)
(declare-fun type_18cf740f_d74e_4749_ac6d_faba668d1451_Class21 ( Int) Bool)
(declare-fun type_18cf740f_d74e_4749_ac6d_faba668d1451_Class28 ( Int) Bool)
(declare-fun type_18cf740f_d74e_4749_ac6d_faba668d1451_Class29 ( Int) Bool)
(declare-fun type_18cf740f_d74e_4749_ac6d_faba668d1451_Class26 ( Int) Bool)
(declare-fun type_18cf740f_d74e_4749_ac6d_faba668d1451_Class27 ( Int) Bool)
(declare-fun type_18cf740f_d74e_4749_ac6d_faba668d1451_Class0 ( Int) Bool)
(declare-fun type_18cf740f_d74e_4749_ac6d_faba668d1451_Class1 ( Int) Bool)
(declare-fun type_18cf740f_d74e_4749_ac6d_faba668d1451_Class2 ( Int) Bool)
(declare-fun type_18cf740f_d74e_4749_ac6d_faba668d1451_Class3 ( Int) Bool)
(declare-fun Cardinality ( Int) Int)
(declare-fun type_18cf740f_d74e_4749_ac6d_faba668d1451_Class8 ( Int) Bool)
(declare-fun type_18cf740f_d74e_4749_ac6d_faba668d1451_Class9 ( Int) Bool)
(declare-fun type_18cf740f_d74e_4749_ac6d_faba668d1451_Class4 ( Int) Bool)
(declare-fun type_18cf740f_d74e_4749_ac6d_faba668d1451_Class5 ( Int) Bool)
(declare-fun type_18cf740f_d74e_4749_ac6d_faba668d1451_Class6 ( Int) Bool)
(declare-fun type_18cf740f_d74e_4749_ac6d_faba668d1451_Class7 ( Int) Bool)
(declare-fun obj_b2ad5068_98db_4d4e_b387_47ac87e9a60f ( Int) Int)
(declare-fun oclSelect ( Int Bool) Int)
(declare-fun class9_Class9IntAttr1 ( Int) Int)
(declare-fun Enum0 ( Int) Int)
(declare-fun Enum1 ( Int) Int)
(declare-fun Enum2 ( Int) Int)
(declare-fun container_ ( Int) Int)
(declare-fun oclIncludes ( Int Int) Bool)
(declare-fun ObjAt ( Int Int) Int)

;formula(s) generated
(assert (forall ((p Int)) (=> ( type_18cf740f_d74e_4749_ac6d_faba668d1451_Class9 p )  (and (>= ( Enum2 ( obj_b2ad5068_98db_4d4e_b387_47ac87e9a60f p )  )  0) (<= ( Enum2 ( obj_b2ad5068_98db_4d4e_b387_47ac87e9a60f p )  )  5)))))
(assert (! (forall ((v Int)) (=> ( type_18cf740f_d74e_4749_ac6d_faba668d1451_Class9 v )  (or (< ( class9_Class9IntAttr1 ( obj_b2ad5068_98db_4d4e_b387_47ac87e9a60f v )  )  18) (and (forall ((v Int)) (=> ( type_18cf740f_d74e_4749_ac6d_faba668d1451_Class9 v )  (not (= ( class9_Class9IntAttr1 ( obj_b2ad5068_98db_4d4e_b387_47ac87e9a60f v )  )  15) ))) (forall ((v Int)) (=> ( type_18cf740f_d74e_4749_ac6d_faba668d1451_Class9 v )  (= ( Enum2 ( obj_b2ad5068_98db_4d4e_b387_47ac87e9a60f v )  )  4))))))):named l0))
(assert (! (exists ((o Int)) (and ( type_18cf740f_d74e_4749_ac6d_faba668d1451_Class0 ( obj_b2ad5068_98db_4d4e_b387_47ac87e9a60f o )  )  ( type_18cf740f_d74e_4749_ac6d_faba668d1451_Class25 ( obj_b2ad5068_98db_4d4e_b387_47ac87e9a60f o )  ) )):named c0))
(assert (! (exists ((o Int)) ( type_18cf740f_d74e_4749_ac6d_faba668d1451_Class1 ( obj_b2ad5068_98db_4d4e_b387_47ac87e9a60f o )  ) ):named c1))
(assert (! (exists ((o Int)) ( type_18cf740f_d74e_4749_ac6d_faba668d1451_Class10 ( obj_b2ad5068_98db_4d4e_b387_47ac87e9a60f o )  ) ):named c2))
(assert (! (exists ((o Int)) ( type_18cf740f_d74e_4749_ac6d_faba668d1451_Class11 ( obj_b2ad5068_98db_4d4e_b387_47ac87e9a60f o )  ) ):named c3))
(assert (! (exists ((o Int)) ( type_18cf740f_d74e_4749_ac6d_faba668d1451_Class12 ( obj_b2ad5068_98db_4d4e_b387_47ac87e9a60f o )  ) ):named c4))
(assert (! (exists ((o Int)) (and (and ( type_18cf740f_d74e_4749_ac6d_faba668d1451_Class13 ( obj_b2ad5068_98db_4d4e_b387_47ac87e9a60f o )  )  ( type_18cf740f_d74e_4749_ac6d_faba668d1451_Class25 ( obj_b2ad5068_98db_4d4e_b387_47ac87e9a60f o )  ) ) ( type_18cf740f_d74e_4749_ac6d_faba668d1451_Class0 ( obj_b2ad5068_98db_4d4e_b387_47ac87e9a60f o )  ) )):named c5))
(assert (! (exists ((o Int)) (and (and ( type_18cf740f_d74e_4749_ac6d_faba668d1451_Class14 ( obj_b2ad5068_98db_4d4e_b387_47ac87e9a60f o )  )  ( type_18cf740f_d74e_4749_ac6d_faba668d1451_Class25 ( obj_b2ad5068_98db_4d4e_b387_47ac87e9a60f o )  ) ) ( type_18cf740f_d74e_4749_ac6d_faba668d1451_Class17 ( obj_b2ad5068_98db_4d4e_b387_47ac87e9a60f o )  ) )):named c6))
(assert (! (exists ((o Int)) ( type_18cf740f_d74e_4749_ac6d_faba668d1451_Class15 ( obj_b2ad5068_98db_4d4e_b387_47ac87e9a60f o )  ) ):named c7))
(assert (! (exists ((o Int)) ( type_18cf740f_d74e_4749_ac6d_faba668d1451_Class16 ( obj_b2ad5068_98db_4d4e_b387_47ac87e9a60f o )  ) ):named c8))
(assert (! (exists ((o Int)) (and ( type_18cf740f_d74e_4749_ac6d_faba668d1451_Class17 ( obj_b2ad5068_98db_4d4e_b387_47ac87e9a60f o )  )  ( type_18cf740f_d74e_4749_ac6d_faba668d1451_Class25 ( obj_b2ad5068_98db_4d4e_b387_47ac87e9a60f o )  ) )):named c9))
(assert (! (exists ((o Int)) (and (and ( type_18cf740f_d74e_4749_ac6d_faba668d1451_Class18 ( obj_b2ad5068_98db_4d4e_b387_47ac87e9a60f o )  )  ( type_18cf740f_d74e_4749_ac6d_faba668d1451_Class25 ( obj_b2ad5068_98db_4d4e_b387_47ac87e9a60f o )  ) ) ( type_18cf740f_d74e_4749_ac6d_faba668d1451_Class17 ( obj_b2ad5068_98db_4d4e_b387_47ac87e9a60f o )  ) )):named c10))
(assert (! (exists ((o Int)) ( type_18cf740f_d74e_4749_ac6d_faba668d1451_Class19 ( obj_b2ad5068_98db_4d4e_b387_47ac87e9a60f o )  ) ):named c11))
(assert (! (exists ((o Int)) ( type_18cf740f_d74e_4749_ac6d_faba668d1451_Class2 ( obj_b2ad5068_98db_4d4e_b387_47ac87e9a60f o )  ) ):named c12))
(assert (! (exists ((o Int)) ( type_18cf740f_d74e_4749_ac6d_faba668d1451_Class20 ( obj_b2ad5068_98db_4d4e_b387_47ac87e9a60f o )  ) ):named c13))
(assert (! (exists ((o Int)) (and (and (and ( type_18cf740f_d74e_4749_ac6d_faba668d1451_Class21 ( obj_b2ad5068_98db_4d4e_b387_47ac87e9a60f o )  )  ( type_18cf740f_d74e_4749_ac6d_faba668d1451_Class25 ( obj_b2ad5068_98db_4d4e_b387_47ac87e9a60f o )  ) ) ( type_18cf740f_d74e_4749_ac6d_faba668d1451_Class13 ( obj_b2ad5068_98db_4d4e_b387_47ac87e9a60f o )  ) ) ( type_18cf740f_d74e_4749_ac6d_faba668d1451_Class0 ( obj_b2ad5068_98db_4d4e_b387_47ac87e9a60f o )  ) )):named c14))
(assert (! (exists ((o Int)) ( type_18cf740f_d74e_4749_ac6d_faba668d1451_Class22 ( obj_b2ad5068_98db_4d4e_b387_47ac87e9a60f o )  ) ):named c15))
(assert (! (exists ((o Int)) (and (and (and (and ( type_18cf740f_d74e_4749_ac6d_faba668d1451_Class23 ( obj_b2ad5068_98db_4d4e_b387_47ac87e9a60f o )  )  ( type_18cf740f_d74e_4749_ac6d_faba668d1451_Class25 ( obj_b2ad5068_98db_4d4e_b387_47ac87e9a60f o )  ) ) ( type_18cf740f_d74e_4749_ac6d_faba668d1451_Class13 ( obj_b2ad5068_98db_4d4e_b387_47ac87e9a60f o )  ) ) ( type_18cf740f_d74e_4749_ac6d_faba668d1451_Class0 ( obj_b2ad5068_98db_4d4e_b387_47ac87e9a60f o )  ) ) ( type_18cf740f_d74e_4749_ac6d_faba668d1451_Class21 ( obj_b2ad5068_98db_4d4e_b387_47ac87e9a60f o )  ) )):named c16))
(assert (! (exists ((o Int)) (and (and ( type_18cf740f_d74e_4749_ac6d_faba668d1451_Class24 ( obj_b2ad5068_98db_4d4e_b387_47ac87e9a60f o )  )  ( type_18cf740f_d74e_4749_ac6d_faba668d1451_Class25 ( obj_b2ad5068_98db_4d4e_b387_47ac87e9a60f o )  ) ) ( type_18cf740f_d74e_4749_ac6d_faba668d1451_Class0 ( obj_b2ad5068_98db_4d4e_b387_47ac87e9a60f o )  ) )):named c17))
(assert (! (exists ((o Int)) ( type_18cf740f_d74e_4749_ac6d_faba668d1451_Class25 ( obj_b2ad5068_98db_4d4e_b387_47ac87e9a60f o )  ) ):named c18))
(assert (! (exists ((o Int)) ( type_18cf740f_d74e_4749_ac6d_faba668d1451_Class26 ( obj_b2ad5068_98db_4d4e_b387_47ac87e9a60f o )  ) ):named c19))
(assert (! (exists ((o Int)) (and (and ( type_18cf740f_d74e_4749_ac6d_faba668d1451_Class27 ( obj_b2ad5068_98db_4d4e_b387_47ac87e9a60f o )  )  ( type_18cf740f_d74e_4749_ac6d_faba668d1451_Class25 ( obj_b2ad5068_98db_4d4e_b387_47ac87e9a60f o )  ) ) ( type_18cf740f_d74e_4749_ac6d_faba668d1451_Class17 ( obj_b2ad5068_98db_4d4e_b387_47ac87e9a60f o )  ) )):named c20))
(assert (! (exists ((o Int)) (and (and (and (and ( type_18cf740f_d74e_4749_ac6d_faba668d1451_Class28 ( obj_b2ad5068_98db_4d4e_b387_47ac87e9a60f o )  )  ( type_18cf740f_d74e_4749_ac6d_faba668d1451_Class25 ( obj_b2ad5068_98db_4d4e_b387_47ac87e9a60f o )  ) ) ( type_18cf740f_d74e_4749_ac6d_faba668d1451_Class13 ( obj_b2ad5068_98db_4d4e_b387_47ac87e9a60f o )  ) ) ( type_18cf740f_d74e_4749_ac6d_faba668d1451_Class0 ( obj_b2ad5068_98db_4d4e_b387_47ac87e9a60f o )  ) ) ( type_18cf740f_d74e_4749_ac6d_faba668d1451_Class21 ( obj_b2ad5068_98db_4d4e_b387_47ac87e9a60f o )  ) )):named c21))
(assert (! (exists ((o Int)) ( type_18cf740f_d74e_4749_ac6d_faba668d1451_Class29 ( obj_b2ad5068_98db_4d4e_b387_47ac87e9a60f o )  ) ):named c22))
(assert (! (exists ((o Int)) ( type_18cf740f_d74e_4749_ac6d_faba668d1451_Class3 ( obj_b2ad5068_98db_4d4e_b387_47ac87e9a60f o )  ) ):named c23))
(assert (! (exists ((o Int)) (and (and (and (and ( type_18cf740f_d74e_4749_ac6d_faba668d1451_Class4 ( obj_b2ad5068_98db_4d4e_b387_47ac87e9a60f o )  )  ( type_18cf740f_d74e_4749_ac6d_faba668d1451_Class25 ( obj_b2ad5068_98db_4d4e_b387_47ac87e9a60f o )  ) ) ( type_18cf740f_d74e_4749_ac6d_faba668d1451_Class24 ( obj_b2ad5068_98db_4d4e_b387_47ac87e9a60f o )  ) ) ( type_18cf740f_d74e_4749_ac6d_faba668d1451_Class6 ( obj_b2ad5068_98db_4d4e_b387_47ac87e9a60f o )  ) ) ( type_18cf740f_d74e_4749_ac6d_faba668d1451_Class0 ( obj_b2ad5068_98db_4d4e_b387_47ac87e9a60f o )  ) )):named c24))
(assert (! (exists ((o Int)) ( type_18cf740f_d74e_4749_ac6d_faba668d1451_Class5 ( obj_b2ad5068_98db_4d4e_b387_47ac87e9a60f o )  ) ):named c25))
(assert (! (exists ((o Int)) (and (and (and ( type_18cf740f_d74e_4749_ac6d_faba668d1451_Class6 ( obj_b2ad5068_98db_4d4e_b387_47ac87e9a60f o )  )  ( type_18cf740f_d74e_4749_ac6d_faba668d1451_Class25 ( obj_b2ad5068_98db_4d4e_b387_47ac87e9a60f o )  ) ) ( type_18cf740f_d74e_4749_ac6d_faba668d1451_Class24 ( obj_b2ad5068_98db_4d4e_b387_47ac87e9a60f o )  ) ) ( type_18cf740f_d74e_4749_ac6d_faba668d1451_Class0 ( obj_b2ad5068_98db_4d4e_b387_47ac87e9a60f o )  ) )):named c26))
(assert (! (exists ((o Int)) ( type_18cf740f_d74e_4749_ac6d_faba668d1451_Class7 ( obj_b2ad5068_98db_4d4e_b387_47ac87e9a60f o )  ) ):named c27))
(assert (! (exists ((o Int)) ( type_18cf740f_d74e_4749_ac6d_faba668d1451_Class8 ( obj_b2ad5068_98db_4d4e_b387_47ac87e9a60f o )  ) ):named c28))
(assert (! (exists ((o Int)) ( type_18cf740f_d74e_4749_ac6d_faba668d1451_Class9 ( obj_b2ad5068_98db_4d4e_b387_47ac87e9a60f o )  ) ):named c29))

 ;end of formula 